c Reading file experiments/loan_acquisition/mmc_encoding/mmc_cegqs_0.dimacs
c Building 1-fold quantitative self-composition...
c ind 187  188  189  190  191  192  193  194  232  233  234  235  236  237  238  239  240  241  242  243  257  259  261  262  276  278  280  281 0
c previous ind: 417  418  419  420  423  424  427  428  429  432  433  434  437  438  439  442  443  444  447  448  449  450  453  454  455  456  459  460  461  462  464  465  466  467  468 0
c This is a CNF SAT formula in the DIMACS CNF format,
c produced with the bc2cnf translator by Tommi Junttila;
c see http://users.ics.aalto.fi/tjunttil/circuits/index.html
c phi_Gamma_det <-> 1
c phi_Gamma <-> 1
c phi_T_feature_det <-> 1
c phi_T_transitions <-> 1
c phi_T_transitions_consistency <-> 1
c phi_T <-> 1
c phi_sim_leaves <-> 1
c phi_sim_transition <-> 1
c phi_sim <-> 1
c FORMULA <-> 1
c pi_1 <-> 2
c pi_0 <-> 102
c tau_1_3_approved_1 <-> 187
c tau_1_3_approved_0 <-> 188
c tau_1_2_approved_1 <-> 189
c tau_1_2_approved_0 <-> 190
c tau_1_1_approved_1 <-> 191
c tau_1_1_approved_0 <-> 192
c tau_1_0_approved_1 <-> 193
c tau_1_0_approved_0 <-> 194
c tau_0_3_approved_1 <-> 232
c tau_0_3_approved_0 <-> 233
c tau_0_3_1 <-> 234
c tau_0_2_approved_1 <-> 235
c tau_0_2_approved_0 <-> 236
c tau_0_2_1 <-> 237
c tau_0_1_approved_1 <-> 238
c tau_0_1_approved_0 <-> 239
c tau_0_1_1 <-> 240
c tau_0_0_approved_1 <-> 241
c tau_0_0_approved_0 <-> 242
c tau_0_0_1 <-> 243
c lam_1_credit_score <-> 257
c lam_1_dependents <-> 259
c lam_1_monthly_income <-> 261
c lam_1_age <-> 262
c lam_0_credit_score <-> 276
c lam_0_dependents <-> 278
c lam_0_monthly_income <-> 280
c lam_0_age <-> 281
c phi_Gamma_val <-> 415
c credit_score_P87100 <-> 417
c dependents_P600 <-> 418
c monthly_income_P411168 <-> 419
c age_P8000 <-> 420
c credit_score_P71100 <-> 423
c monthly_income_P505595 <-> 424
c credit_score_P60300 <-> 427
c monthly_income_P728251 <-> 428
c age_P5900 <-> 429
c credit_score_P51400 <-> 432
c monthly_income_P772006 <-> 433
c age_P4200 <-> 434
c credit_score_P51200 <-> 437
c monthly_income_P778238 <-> 438
c age_P7800 <-> 439
c credit_score_P78400 <-> 442
c monthly_income_P256561 <-> 443
c age_P6600 <-> 444
c pi_approved_0 <-> 447
c approved_P0 <-> 447
c credit_score_P63800 <-> 448
c monthly_income_P579534 <-> 449
c age_P2800 <-> 450
c credit_score_P87200 <-> 453
c dependents_P400 <-> 454
c monthly_income_P741343 <-> 455
c age_P6200 <-> 456
c credit_score_P60200 <-> 459
c dependents_P200 <-> 460
c monthly_income_P935859 <-> 461
c age_P7700 <-> 462
c pi_approved_1 <-> 464
c approved_P100 <-> 464
c credit_score_P88100 <-> 465
c dependents_P100 <-> 466
c monthly_income_P565922 <-> 467
c age_P7300 <-> 468
c ind 417 418 419 420 423 424 427 428 429 432 433 434 437 438 439 442 443 444 447 448 449 450 453 454 455 456 459 460 461 462 464 465 466 467 468 0
p cnf 470 1261
1 0
2 -3 0
2 -9 0
-2 9 3 0
-3 4 0
-3 78 0
3 -78 -4 0
-4 5 0
-4 257 0
4 -257 -5 0
5 -6 0
5 -50 0
-5 50 6 0
6 -7 0
6 -54 0
-6 54 7 0
7 -8 0
7 -62 0
-7 62 8 0
8 -66 0
8 -73 0
-8 73 66 0
9 -10 0
9 -16 0
-9 16 10 0
-10 11 0
-10 87 0
10 -87 -11 0
-11 12 0
-11 257 0
11 -257 -12 0
12 -13 0
12 -82 0
-12 82 13 0
13 -14 0
13 -91 0
-13 91 14 0
14 -15 0
14 -58 0
-14 58 15 0
15 -70 0
15 -99 0
-15 99 70 0
16 -17 0
16 -22 0
-16 22 17 0
-17 18 0
-17 87 0
17 -87 -18 0
-18 19 0
-18 259 0
18 -259 -19 0
19 -20 0
19 -50 0
-19 50 20 0
20 -21 0
20 -91 0
-20 91 21 0
21 -62 0
21 -66 0
-21 66 62 0
22 -23 0
22 -29 0
-22 29 23 0
-23 24 0
-23 95 0
23 -95 -24 0
-24 25 0
-24 259 0
24 -259 -25 0
25 -26 0
25 -54 0
-25 54 26 0
26 -27 0
26 -82 0
-26 82 27 0
27 -28 0
27 -58 0
-27 58 28 0
28 -69 0
28 -99 0
-28 99 69 0
29 -30 0
29 -36 0
-29 36 30 0
-30 31 0
-30 87 0
30 -87 -31 0
-31 32 0
-31 261 0
31 -261 -32 0
32 -33 0
32 -82 0
-32 82 33 0
33 -34 0
33 -91 0
-33 91 34 0
34 -35 0
34 -58 0
-34 58 35 0
35 -66 0
35 -70 0
-35 70 66 0
36 -37 0
36 -43 0
-36 43 37 0
-37 38 0
-37 95 0
37 -95 -38 0
-38 39 0
-38 261 0
38 -261 -39 0
39 -40 0
39 -50 0
-39 50 40 0
40 -41 0
40 -54 0
-40 54 41 0
41 -42 0
41 -62 0
-41 62 42 0
42 -73 0
42 -99 0
-42 99 73 0
43 -44 0
43 -76 0
-43 76 44 0
-44 45 0
-44 48 0
44 -48 -45 0
-45 46 0
-45 47 0
45 -47 -46 0
46 187 0
46 -464 0
-46 464 -187 0
47 188 0
47 -447 0
-47 447 -188 0
-48 49 0
-48 262 0
48 -262 -49 0
49 -50 0
49 -53 0
-49 53 50 0
-50 51 0
-50 417 0
50 -417 -51 0
-51 52 0
-51 418 0
51 -418 -52 0
-52 419 0
-52 420 0
52 -420 -419 0
53 -54 0
53 -57 0
-53 57 54 0
-54 55 0
-54 423 0
54 -423 -55 0
-55 56 0
-55 466 0
55 -466 -56 0
-56 424 0
-56 462 0
56 -462 -424 0
57 -58 0
57 -61 0
-57 61 58 0
-58 59 0
-58 437 0
58 -437 -59 0
-59 60 0
-59 460 0
59 -460 -60 0
-60 438 0
-60 439 0
60 -439 -438 0
61 -62 0
61 -65 0
-61 65 62 0
-62 63 0
-62 442 0
62 -442 -63 0
-63 64 0
-63 454 0
63 -454 -64 0
-64 443 0
-64 444 0
64 -444 -443 0
65 -66 0
65 -69 0
-65 69 66 0
-66 67 0
-66 453 0
66 -453 -67 0
-67 68 0
-67 454 0
67 -454 -68 0
-68 455 0
-68 456 0
68 -456 -455 0
69 -70 0
69 -73 0
-69 73 70 0
-70 71 0
-70 459 0
70 -459 -71 0
-71 72 0
-71 460 0
71 -460 -72 0
-72 461 0
-72 462 0
72 -462 -461 0
-73 74 0
-73 465 0
73 -465 -74 0
-74 75 0
-74 466 0
74 -466 -75 0
-75 467 0
-75 468 0
75 -468 -467 0
76 -77 0
76 -85 0
-76 85 77 0
-77 78 0
-77 81 0
77 -81 -78 0
-78 79 0
-78 80 0
78 -80 -79 0
79 189 0
79 -464 0
-79 464 -189 0
80 190 0
80 -447 0
-80 447 -190 0
-81 82 0
-81 262 0
81 -262 -82 0
-82 83 0
-82 427 0
82 -427 -83 0
-83 84 0
-83 466 0
83 -466 -84 0
-84 428 0
-84 429 0
84 -429 -428 0
85 -86 0
85 -94 0
-85 94 86 0
-86 87 0
-86 90 0
86 -90 -87 0
-87 88 0
-87 89 0
87 -89 -88 0
88 191 0
88 -464 0
-88 464 -191 0
89 192 0
89 -447 0
-89 447 -192 0
-90 91 0
-90 262 0
90 -262 -91 0
-91 92 0
-91 432 0
91 -432 -92 0
-92 93 0
-92 454 0
92 -454 -93 0
-93 433 0
-93 434 0
93 -434 -433 0
-94 95 0
-94 98 0
94 -98 -95 0
-95 96 0
-95 97 0
95 -97 -96 0
96 193 0
96 -464 0
-96 464 -193 0
97 194 0
97 -447 0
-97 447 -194 0
-98 99 0
-98 262 0
98 -262 -99 0
-99 100 0
-99 448 0
99 -448 -100 0
-100 101 0
-100 460 0
100 -460 -101 0
-101 449 0
-101 450 0
101 -450 -449 0
102 -103 0
102 -105 0
-102 105 103 0
102 0
-103 104 0
-103 130 0
103 -130 -104 0
-104 5 0
-104 276 0
104 -276 -5 0
105 -106 0
105 -108 0
-105 108 106 0
-106 107 0
-106 138 0
106 -138 -107 0
-107 12 0
-107 276 0
107 -276 -12 0
108 -109 0
108 -111 0
-108 111 109 0
-109 110 0
-109 138 0
109 -138 -110 0
-110 19 0
-110 278 0
110 -278 -19 0
111 -112 0
111 -114 0
-111 114 112 0
-112 113 0
-112 145 0
112 -145 -113 0
-113 25 0
-113 278 0
113 -278 -25 0
114 -115 0
114 -117 0
-114 117 115 0
-115 116 0
-115 138 0
115 -138 -116 0
-116 32 0
-116 280 0
116 -280 -32 0
117 -118 0
117 -120 0
-117 120 118 0
-118 119 0
-118 145 0
118 -145 -119 0
-119 39 0
-119 280 0
119 -280 -39 0
120 -121 0
120 -128 0
-120 128 121 0
-121 122 0
-121 127 0
121 -127 -122 0
-122 123 0
-122 124 0
122 -124 -123 0
123 232 0
123 -464 0
-123 464 -232 0
-124 125 0
-124 126 0
124 -126 -125 0
125 233 0
125 -447 0
-125 447 -233 0
126 -2 0
126 234 0
-126 -234 2 0
-127 49 0
-127 281 0
127 -281 -49 0
128 -129 0
128 -136 0
-128 136 129 0
-129 130 0
-129 135 0
129 -135 -130 0
-130 131 0
-130 132 0
130 -132 -131 0
131 235 0
131 -464 0
-131 464 -235 0
-132 133 0
-132 134 0
132 -134 -133 0
133 236 0
133 -447 0
-133 447 -236 0
134 -2 0
134 237 0
-134 -237 2 0
-135 82 0
-135 281 0
135 -281 -82 0
136 -137 0
136 -144 0
-136 144 137 0
-137 138 0
-137 143 0
137 -143 -138 0
-138 139 0
-138 140 0
138 -140 -139 0
139 238 0
139 -464 0
-139 464 -238 0
-140 141 0
-140 142 0
140 -142 -141 0
141 239 0
141 -447 0
-141 447 -239 0
142 -2 0
142 240 0
-142 -240 2 0
-143 91 0
-143 281 0
143 -281 -91 0
-144 145 0
-144 150 0
144 -150 -145 0
-145 146 0
-145 147 0
145 -147 -146 0
146 241 0
146 -464 0
-146 464 -241 0
-147 148 0
-147 149 0
147 -149 -148 0
148 242 0
148 -447 0
-148 447 -242 0
149 -2 0
149 243 0
-149 -243 2 0
-150 99 0
-150 281 0
150 -281 -99 0
151 257 0
151 -152 0
-151 152 -257 0
151 0
-152 -187 0
-152 -188 0
152 188 187 0
153 259 0
153 -154 0
-153 154 -259 0
153 0
-154 -187 0
-154 155 0
154 -155 187 0
-155 -188 0
-155 156 0
155 -156 188 0
-156 -189 0
-156 -190 0
156 190 189 0
157 -154 0
157 261 0
-157 -261 154 0
157 0
158 276 0
158 -159 0
-158 159 -276 0
158 0
-159 -232 0
-159 160 0
159 -160 232 0
-160 -233 0
-160 -234 0
160 234 233 0
161 278 0
161 -162 0
-161 162 -278 0
161 0
-162 -232 0
-162 163 0
162 -163 232 0
-163 -233 0
-163 164 0
163 -164 233 0
-164 -234 0
-164 165 0
164 -165 234 0
-165 -235 0
-165 166 0
165 -166 235 0
-166 -236 0
-166 -237 0
166 237 236 0
167 -162 0
167 280 0
-167 -280 162 0
167 0
168 257 0
168 -169 0
-168 169 -257 0
168 0
-169 170 0
-169 173 0
169 -173 -170 0
170 -171 0
170 -172 0
-170 172 171 0
-171 -190 0
-171 189 0
171 -189 190 0
-172 -189 0
-172 190 0
172 -190 189 0
-173 174 0
-173 177 0
173 -177 -174 0
174 -175 0
174 -176 0
-174 176 175 0
-175 -192 0
-175 191 0
175 -191 192 0
-176 -191 0
-176 192 0
176 -192 191 0
177 -178 0
177 -179 0
-177 179 178 0
-178 -194 0
-178 193 0
178 -193 194 0
-179 -193 0
-179 194 0
179 -194 193 0
180 259 0
180 -173 0
-180 173 -259 0
180 0
181 261 0
181 -173 0
-181 173 -261 0
181 0
182 262 0
182 -183 0
-182 183 -262 0
182 0
-183 169 0
-183 184 0
183 -184 -169 0
184 -185 0
184 -186 0
-184 186 185 0
-185 -188 0
-185 187 0
185 -187 188 0
-186 -187 0
-186 188 0
186 -188 187 0
195 276 0
195 -196 0
-195 196 -276 0
195 0
-196 197 0
-196 204 0
196 -204 -197 0
197 -198 0
197 -202 0
-197 202 198 0
198 -199 0
198 -200 0
-198 200 199 0
-199 166 0
-199 235 0
199 -235 -166 0
-200 201 0
-200 236 0
200 -236 -201 0
-201 -235 0
-201 -237 0
201 237 235 0
-202 203 0
-202 237 0
202 -237 -203 0
-203 -235 0
-203 -236 0
203 236 235 0
-204 205 0
-204 213 0
204 -213 -205 0
205 -206 0
205 -211 0
-205 211 206 0
206 -207 0
206 -209 0
-206 209 207 0
-207 208 0
-207 238 0
207 -238 -208 0
-208 -239 0
-208 -240 0
208 240 239 0
-209 210 0
-209 239 0
209 -239 -210 0
-210 -238 0
-210 -240 0
210 240 238 0
-211 212 0
-211 240 0
211 -240 -212 0
-212 -238 0
-212 -239 0
212 239 238 0
213 -214 0
213 -219 0
-213 219 214 0
214 -215 0
214 -217 0
-214 217 215 0
-215 216 0
-215 241 0
215 -241 -216 0
-216 -242 0
-216 -243 0
216 243 242 0
-217 218 0
-217 242 0
217 -242 -218 0
-218 -241 0
-218 -243 0
218 243 241 0
-219 220 0
-219 243 0
219 -243 -220 0
-220 -241 0
-220 -242 0
220 242 241 0
221 278 0
221 -204 0
-221 204 -278 0
221 0
222 280 0
222 -204 0
-222 204 -280 0
222 0
223 281 0
223 -224 0
-223 224 -281 0
223 0
-224 196 0
-224 225 0
224 -225 -196 0
225 -226 0
225 -230 0
-225 230 226 0
226 -227 0
226 -228 0
-226 228 227 0
-227 160 0
-227 232 0
227 -232 -160 0
-228 229 0
-228 233 0
228 -233 -229 0
-229 -232 0
-229 -234 0
229 234 232 0
-230 231 0
-230 234 0
230 -234 -231 0
-231 -232 0
-231 -233 0
231 233 232 0
244 -245 0
244 -248 0
-244 248 245 0
244 0
-245 -259 0
-245 246 0
245 -246 259 0
-246 -261 0
-246 247 0
246 -247 261 0
-247 -262 0
-247 257 0
247 -257 262 0
248 -249 0
248 -252 0
-248 252 249 0
-249 -257 0
-249 250 0
249 -250 257 0
-250 -261 0
-250 251 0
250 -251 261 0
-251 -262 0
-251 259 0
251 -259 262 0
252 -253 0
252 -256 0
-252 256 253 0
-253 -257 0
-253 254 0
253 -254 257 0
-254 -259 0
-254 255 0
254 -255 259 0
-255 -262 0
-255 261 0
255 -261 262 0
-256 -257 0
-256 258 0
256 -258 257 0
-258 -259 0
-258 260 0
258 -260 259 0
-260 -261 0
-260 262 0
260 -262 261 0
263 -264 0
263 -267 0
-263 267 264 0
263 0
-264 -278 0
-264 265 0
264 -265 278 0
-265 -280 0
-265 266 0
265 -266 280 0
-266 -281 0
-266 276 0
266 -276 281 0
267 -268 0
267 -271 0
-267 271 268 0
-268 -276 0
-268 269 0
268 -269 276 0
-269 -280 0
-269 270 0
269 -270 280 0
-270 -281 0
-270 278 0
270 -278 281 0
271 -272 0
271 -275 0
-271 275 272 0
-272 -276 0
-272 273 0
272 -273 276 0
-273 -278 0
-273 274 0
273 -274 278 0
-274 -281 0
-274 280 0
274 -280 281 0
-275 -276 0
-275 277 0
275 -277 276 0
-277 -278 0
-277 279 0
277 -279 278 0
-279 -280 0
-279 281 0
279 -281 280 0
282 464 0
282 447 0
-282 -447 -464 0
282 0
283 423 0
283 417 0
-283 -417 -423 0
283 0
284 427 0
284 -285 0
-284 285 -427 0
284 0
-285 -423 0
-285 -417 0
285 417 423 0
286 432 0
286 -287 0
-286 287 -432 0
286 0
-287 -417 0
-287 288 0
287 -288 417 0
-288 -423 0
-288 -427 0
288 427 423 0
289 437 0
289 -290 0
-289 290 -437 0
289 0
-290 -417 0
-290 291 0
290 -291 417 0
-291 -423 0
-291 292 0
291 -292 423 0
-292 -427 0
-292 -432 0
292 432 427 0
293 442 0
293 -294 0
-293 294 -442 0
293 0
-294 -417 0
-294 295 0
294 -295 417 0
-295 -423 0
-295 296 0
295 -296 423 0
-296 -427 0
-296 297 0
296 -297 427 0
-297 -432 0
-297 -437 0
297 437 432 0
298 448 0
298 -299 0
-298 299 -448 0
298 0
-299 -417 0
-299 300 0
299 -300 417 0
-300 -423 0
-300 301 0
300 -301 423 0
-301 -427 0
-301 302 0
301 -302 427 0
-302 -432 0
-302 303 0
302 -303 432 0
-303 -437 0
-303 -442 0
303 442 437 0
304 453 0
304 -305 0
-304 305 -453 0
304 0
-305 -417 0
-305 306 0
305 -306 417 0
-306 -423 0
-306 307 0
306 -307 423 0
-307 -427 0
-307 308 0
307 -308 427 0
-308 -432 0
-308 309 0
308 -309 432 0
-309 -437 0
-309 310 0
309 -310 437 0
-310 -442 0
-310 -448 0
310 448 442 0
311 459 0
311 -312 0
-311 312 -459 0
311 0
-312 -417 0
-312 313 0
312 -313 417 0
-313 -423 0
-313 314 0
313 -314 423 0
-314 -427 0
-314 315 0
314 -315 427 0
-315 -432 0
-315 316 0
315 -316 432 0
-316 -437 0
-316 317 0
316 -317 437 0
-317 -442 0
-317 318 0
317 -318 442 0
-318 -448 0
-318 -453 0
318 453 448 0
319 465 0
319 -320 0
-319 320 -465 0
319 0
-320 -417 0
-320 321 0
320 -321 417 0
-321 -423 0
-321 322 0
321 -322 423 0
-322 -427 0
-322 323 0
322 -323 427 0
-323 -432 0
-323 324 0
323 -324 432 0
-324 -437 0
-324 325 0
324 -325 437 0
-325 -442 0
-325 326 0
325 -326 442 0
-326 -448 0
-326 327 0
326 -327 448 0
-327 -453 0
-327 -459 0
327 459 453 0
328 454 0
328 418 0
-328 -418 -454 0
328 0
329 460 0
329 -330 0
-329 330 -460 0
329 0
-330 -454 0
-330 -418 0
330 418 454 0
331 466 0
331 -332 0
-331 332 -466 0
331 0
-332 -418 0
-332 333 0
332 -333 418 0
-333 -454 0
-333 -460 0
333 460 454 0
334 424 0
334 419 0
-334 -419 -424 0
334 0
335 428 0
335 -336 0
-335 336 -428 0
335 0
-336 -424 0
-336 -419 0
336 419 424 0
337 433 0
337 -338 0
-337 338 -433 0
337 0
-338 -419 0
-338 339 0
338 -339 419 0
-339 -424 0
-339 -428 0
339 428 424 0
340 438 0
340 -341 0
-340 341 -438 0
340 0
-341 -419 0
-341 342 0
341 -342 419 0
-342 -424 0
-342 343 0
342 -343 424 0
-343 -428 0
-343 -433 0
343 433 428 0
344 443 0
344 -345 0
-344 345 -443 0
344 0
-345 -419 0
-345 346 0
345 -346 419 0
-346 -424 0
-346 347 0
346 -347 424 0
-347 -428 0
-347 348 0
347 -348 428 0
-348 -433 0
-348 -438 0
348 438 433 0
349 449 0
349 -350 0
-349 350 -449 0
349 0
-350 -419 0
-350 351 0
350 -351 419 0
-351 -424 0
-351 352 0
351 -352 424 0
-352 -428 0
-352 353 0
352 -353 428 0
-353 -433 0
-353 354 0
353 -354 433 0
-354 -438 0
-354 -443 0
354 443 438 0
355 455 0
355 -356 0
-355 356 -455 0
355 0
-356 -419 0
-356 357 0
356 -357 419 0
-357 -424 0
-357 358 0
357 -358 424 0
-358 -428 0
-358 359 0
358 -359 428 0
-359 -433 0
-359 360 0
359 -360 433 0
-360 -438 0
-360 361 0
360 -361 438 0
-361 -443 0
-361 -449 0
361 449 443 0
362 461 0
362 -363 0
-362 363 -461 0
362 0
-363 -419 0
-363 364 0
363 -364 419 0
-364 -424 0
-364 365 0
364 -365 424 0
-365 -428 0
-365 366 0
365 -366 428 0
-366 -433 0
-366 367 0
366 -367 433 0
-367 -438 0
-367 368 0
367 -368 438 0
-368 -443 0
-368 369 0
368 -369 443 0
-369 -449 0
-369 -455 0
369 455 449 0
370 467 0
370 -371 0
-370 371 -467 0
370 0
-371 -419 0
-371 372 0
371 -372 419 0
-372 -424 0
-372 373 0
372 -373 424 0
-373 -428 0
-373 374 0
373 -374 428 0
-374 -433 0
-374 375 0
374 -375 433 0
-375 -438 0
-375 376 0
375 -376 438 0
-376 -443 0
-376 377 0
376 -377 443 0
-377 -449 0
-377 378 0
377 -378 449 0
-378 -455 0
-378 -461 0
378 461 455 0
379 429 0
379 420 0
-379 -420 -429 0
379 0
380 434 0
380 -381 0
-380 381 -434 0
380 0
-381 -429 0
-381 -420 0
381 420 429 0
382 439 0
382 -383 0
-382 383 -439 0
382 0
-383 -420 0
-383 384 0
383 -384 420 0
-384 -429 0
-384 -434 0
384 434 429 0
385 444 0
385 -386 0
-385 386 -444 0
385 0
-386 -420 0
-386 387 0
386 -387 420 0
-387 -429 0
-387 388 0
387 -388 429 0
-388 -434 0
-388 -439 0
388 439 434 0
389 450 0
389 -390 0
-389 390 -450 0
389 0
-390 -420 0
-390 391 0
390 -391 420 0
-391 -429 0
-391 392 0
391 -392 429 0
-392 -434 0
-392 393 0
392 -393 434 0
-393 -439 0
-393 -444 0
393 444 439 0
394 456 0
394 -395 0
-394 395 -456 0
394 0
-395 -420 0
-395 396 0
395 -396 420 0
-396 -429 0
-396 397 0
396 -397 429 0
-397 -434 0
-397 398 0
397 -398 434 0
-398 -439 0
-398 399 0
398 -399 439 0
-399 -444 0
-399 -450 0
399 450 444 0
400 462 0
400 -401 0
-400 401 -462 0
400 0
-401 -420 0
-401 402 0
401 -402 420 0
-402 -429 0
-402 403 0
402 -403 429 0
-403 -434 0
-403 404 0
403 -404 434 0
-404 -439 0
-404 405 0
404 -405 439 0
-405 -444 0
-405 406 0
405 -406 444 0
-406 -450 0
-406 -456 0
406 456 450 0
407 468 0
407 -408 0
-407 408 -468 0
407 0
-408 -420 0
-408 409 0
408 -409 420 0
-409 -429 0
-409 410 0
409 -410 429 0
-410 -434 0
-410 411 0
410 -411 434 0
-411 -439 0
-411 412 0
411 -412 439 0
-412 -444 0
-412 413 0
412 -413 444 0
-413 -450 0
-413 414 0
413 -414 450 0
-414 -456 0
-414 -462 0
414 462 456 0
415 -416 0
415 -421 0
-415 421 416 0
415 0
-416 50 0
-416 447 0
416 -447 -50 0
421 -422 0
421 -425 0
-421 425 422 0
-422 54 0
-422 464 0
422 -464 -54 0
425 -426 0
425 -430 0
-425 430 426 0
-426 82 0
-426 464 0
426 -464 -82 0
430 -431 0
430 -435 0
-430 435 431 0
-431 91 0
-431 464 0
431 -464 -91 0
435 -436 0
435 -440 0
-435 440 436 0
-436 58 0
-436 464 0
436 -464 -58 0
440 -441 0
440 -445 0
-440 445 441 0
-441 62 0
-441 447 0
441 -447 -62 0
445 -446 0
445 -451 0
-445 451 446 0
-446 99 0
-446 447 0
446 -447 -99 0
451 -452 0
451 -457 0
-451 457 452 0
-452 66 0
-452 464 0
452 -464 -66 0
457 -458 0
457 -463 0
-457 463 458 0
-458 70 0
-458 464 0
458 -464 -70 0
-463 73 0
-463 464 0
463 -464 -73 0
